% demand
num_movements = 27;
loading_factor = [1950, 1700, 1900, 1950, 1300, 1800, 1700, 1200, 1000, 1400, 800, 800, 950, 1150, 1000, 1250, 950, 1450, 800, 1850, 1750, 1750, 950, 1850, 1950, 1400, 950];
pickup_time = [0, 0, 0, 0, 0, 0, 1, 1, 1, 2, 2, 2, 2, 3, 3, 3, 3, 3, 3, 4, 5, 5, 5, 5, 5, 5, 5];
delivery_time = [1, 1, 1, 1, 1, 1, 3, 3, 3, 3, 3, 4, 3, 4, 4, 5, 4, 4, 5, 5, 6, 6, 6, 6, 6, 6, 6];

% transporter definition
total_capacity = 11000;
num_decks = 4;
capacity = [3000, 3000, 1000, 4000];

% ways out of decks
num_ways_out = 2;
paths_out = array3d(decks, ways_out, decks, [
% ways out of deck d1
2, 4, 0, 0, 3, 4, 0, 0, 

% ways out of deck d2
4, 0, 0, 0, 0, 0, 0, 0,	

% ways out of deck d3
4, 0, 0, 0, 0, 0, 0, 0,	

% ways out of deck d4
0, 0, 0, 0,	0, 0, 0, 0,	

]);

